100
120
98
97
94
94
93
91
90
89
89
89
88
86
86
84
83
80
79
78
77
75
75
72
71
70
69
67
66
65
64
64
62
61
60
60
60
59
57
56
56
56
56
56
55
55
55
54
51
50
50
49
49
49
48
47
47
46
44
43
42
40
40
37
37
36
36
36
36
34
33
33
32
32
30
30
28
28
25
25
24
24
24
22
22
21
20
19
17
16
13
12
10
9
6
5
5
4
3
3
2
1
